VRPTWMS/instances/mip/fuel/5/N5-C_DV100-C_SV25_F5_6_No_1.lp
\ N5-C_DV100-C_SV25_F5_6

Minimize
  11.66 x_d0_c1 + 11.66 z_d0_c1 + 8.6 x_d0_c2 + 8.6 z_d0_c2 + 24.19 x_d0_c3 + 24.19 z_d0_c3 + 18.68 x_d0_c4 + 18.68 z_d0_c4 + 14.76 x_d0_c5 + 14.76 z_d0_c5 + 17.03 x_c1_c2 + 17.03 x_c2_c1 + 17.03 z_c1_c2 + 17.03 z_c2_c1 + 16.64 x_c1_c3 + 16.64 x_c3_c1 + 16.64 z_c1_c3 + 16.64 z_c3_c1 + 28.3 x_c1_c4 + 28.3 x_c4_c1 + 28.3 z_c1_c4 + 28.3 z_c4_c1 + 25.5 x_c1_c5 + 25.5 x_c5_c1 + 25.5 z_c1_c5 + 25.5 z_c5_c1 + 32.02 x_c2_c3 + 32.02 x_c3_c2 + 32.02 z_c2_c3 + 32.02 z_c3_c2 + 23.09 x_c2_c4 + 23.09 x_c4_c2 + 23.09 z_c2_c4 + 23.09 z_c4_c2 + 18.0 x_c2_c5 + 18.0 x_c5_c2 + 18.0 z_c2_c5 + 18.0 z_c5_c2 + 32.65 x_c3_c4 + 32.65 x_c4_c3 + 32.65 z_c3_c4 + 32.65 z_c4_c3 + 32.57 x_c3_c5 + 32.57 x_c5_c3 + 32.57 z_c3_c5 + 32.57 z_c5_c3 + 5.39 x_c4_c5 + 5.39 x_c5_c4 + 5.39 z_c4_c5 + 5.39 z_c5_c4 + 11.66 x_c1_dN + 11.66 z_c1_dN + 8.6 x_c2_dN + 8.6 z_c2_dN + 24.19 x_c3_dN + 24.19 z_c3_dN + 18.68 x_c4_dN + 18.68 z_c4_dN + 14.76 x_c5_dN + 14.76 z_c5_dN + 1000.0 x_d0_c1 + 1000.0 z_d0_c1 + 1000.0 x_d0_c2 + 1000.0 z_d0_c2 + 1000.0 x_d0_c3 + 1000.0 z_d0_c3 + 1000.0 x_d0_c4 + 1000.0 z_d0_c4 + 1000.0 x_d0_c5 + 1000.0 z_d0_c5
Subject To
  Successor_DV_c1: x_c1_c2 + x_c1_c3 + x_c1_c4 + x_c1_c5 + x_c1_dN = 1
  Successor_DV_c2: x_c2_c1 + x_c2_c3 + x_c2_c4 + x_c2_c5 + x_c2_dN = 1
  Successor_DV_c3: x_c3_c1 + x_c3_c2 + x_c3_c4 + x_c3_c5 + x_c3_dN = 1
  Successor_DV_c4: x_c4_c1 + x_c4_c2 + x_c4_c3 + x_c4_c5 + x_c4_dN = 1
  Successor_DV_c5: x_c5_c1 + x_c5_c2 + x_c5_c3 + x_c5_c4 + x_c5_dN = 1
  Successor_SV_c1: z_c1_c2 + z_c1_c3 + z_c1_c4 + z_c1_c5 + z_c1_dN <= 1
  Successor_SV_c2: z_c2_c1 + z_c2_c3 + z_c2_c4 + z_c2_c5 + z_c2_dN <= 1
  Successor_SV_c3: z_c3_c1 + z_c3_c2 + z_c3_c4 + z_c3_c5 + z_c3_dN <= 1
  Successor_SV_c4: z_c4_c1 + z_c4_c2 + z_c4_c3 + z_c4_c5 + z_c4_dN <= 1
  Successor_SV_c5: z_c5_c1 + z_c5_c2 + z_c5_c3 + z_c5_c4 + z_c5_dN <= 1
  Flow_DV_c1: x_d0_c1 + x_c2_c1 + x_c3_c1 + x_c4_c1 + x_c5_c1 - x_c1_dN - x_c1_c2 - x_c1_c3 - x_c1_c4 - x_c1_c5 = 0
  Flow_DV_c2: x_d0_c2 + x_c1_c2 + x_c3_c2 + x_c4_c2 + x_c5_c2 - x_c2_dN - x_c2_c1 - x_c2_c3 - x_c2_c4 - x_c2_c5 = 0
  Flow_DV_c3: x_d0_c3 + x_c1_c3 + x_c2_c3 + x_c4_c3 + x_c5_c3 - x_c3_dN - x_c3_c1 - x_c3_c2 - x_c3_c4 - x_c3_c5 = 0
  Flow_DV_c4: x_d0_c4 + x_c1_c4 + x_c2_c4 + x_c3_c4 + x_c5_c4 - x_c4_dN - x_c4_c1 - x_c4_c2 - x_c4_c3 - x_c4_c5 = 0
  Flow_DV_c5: x_d0_c5 + x_c1_c5 + x_c2_c5 + x_c3_c5 + x_c4_c5 - x_c5_dN - x_c5_c1 - x_c5_c2 - x_c5_c3 - x_c5_c4 = 0
  Flow_SV_c1: z_d0_c1 + z_c2_c1 + z_c3_c1 + z_c4_c1 + z_c5_c1 - z_c1_dN - z_c1_c2 - z_c1_c3 - z_c1_c4 - z_c1_c5 = 0
  Flow_SV_c2: z_d0_c2 + z_c1_c2 + z_c3_c2 + z_c4_c2 + z_c5_c2 - z_c2_dN - z_c2_c1 - z_c2_c3 - z_c2_c4 - z_c2_c5 = 0
  Flow_SV_c3: z_d0_c3 + z_c1_c3 + z_c2_c3 + z_c4_c3 + z_c5_c3 - z_c3_dN - z_c3_c1 - z_c3_c2 - z_c3_c4 - z_c3_c5 = 0
  Flow_SV_c4: z_d0_c4 + z_c1_c4 + z_c2_c4 + z_c3_c4 + z_c5_c4 - z_c4_dN - z_c4_c1 - z_c4_c2 - z_c4_c3 - z_c4_c5 = 0
  Flow_SV_c5: z_d0_c5 + z_c1_c5 + z_c2_c5 + z_c3_c5 + z_c4_c5 - z_c5_dN - z_c5_c1 - z_c5_c2 - z_c5_c3 - z_c5_c4 = 0
  travelDV_d0_c1: tauD_d0 - tauD_c1 + 102.915 x_d0_c1 <= 100.0
  travelDV_d0_c2: tauD_d0 - tauD_c2 + 102.15 x_d0_c2 <= 100.0
  travelDV_d0_c3: tauD_d0 - tauD_c3 + 106.0475 x_d0_c3 <= 100.0
  travelDV_d0_c4: tauD_d0 - tauD_c4 + 104.67 x_d0_c4 <= 100.0
  travelDV_d0_c5: tauD_d0 - tauD_c5 + 103.69 x_d0_c5 <= 100.0
  travelDV_c1_c2: tauD_c1 - tauD_c2 + 109.2575 x_c1_c2 + 8.0 p_1 <= 100.0
  travelDV_c1_c3: tauD_c1 - tauD_c3 + 109.16 x_c1_c3 + 8.0 p_1 <= 100.0
  travelDV_c1_c4: tauD_c1 - tauD_c4 + 112.075 x_c1_c4 + 8.0 p_1 <= 100.0
  travelDV_c1_c5: tauD_c1 - tauD_c5 + 111.375 x_c1_c5 + 8.0 p_1 <= 100.0
  travelDV_c2_c1: tauD_c2 - tauD_c1 + 109.2575 x_c2_c1 + 8.0 p_2 <= 100.0
  travelDV_c2_c3: tauD_c2 - tauD_c3 + 113.005 x_c2_c3 + 8.0 p_2 <= 100.0
  travelDV_c2_c4: tauD_c2 - tauD_c4 + 110.7725 x_c2_c4 + 8.0 p_2 <= 100.0
  travelDV_c2_c5: tauD_c2 - tauD_c5 + 109.5 x_c2_c5 + 8.0 p_2 <= 100.0
  travelDV_c3_c1: tauD_c3 - tauD_c1 + 111.16 x_c3_c1 + 8.0 p_3 <= 100.0
  travelDV_c3_c2: tauD_c3 - tauD_c2 + 115.005 x_c3_c2 + 8.0 p_3 <= 100.0
  travelDV_c3_c4: tauD_c3 - tauD_c4 + 115.1625 x_c3_c4 + 8.0 p_3 <= 100.0
  travelDV_c3_c5: tauD_c3 - tauD_c5 + 115.1425 x_c3_c5 + 8.0 p_3 <= 100.0
  travelDV_c4_c1: tauD_c4 - tauD_c1 + 114.075 x_c4_c1 + 8.0 p_4 <= 100.0
  travelDV_c4_c2: tauD_c4 - tauD_c2 + 112.7725 x_c4_c2 + 8.0 p_4 <= 100.0
  travelDV_c4_c3: tauD_c4 - tauD_c3 + 115.1625 x_c4_c3 + 8.0 p_4 <= 100.0
  travelDV_c4_c5: tauD_c4 - tauD_c5 + 108.3475 x_c4_c5 + 8.0 p_4 <= 100.0
  travelDV_c5_c1: tauD_c5 - tauD_c1 + 114.375 x_c5_c1 + 8.0 p_5 <= 100.0
  travelDV_c5_c2: tauD_c5 - tauD_c2 + 112.5 x_c5_c2 + 8.0 p_5 <= 100.0
  travelDV_c5_c3: tauD_c5 - tauD_c3 + 116.1425 x_c5_c3 + 8.0 p_5 <= 100.0
  travelDV_c5_c4: tauD_c5 - tauD_c4 + 109.3475 x_c5_c4 + 8.0 p_5 <= 100.0
  TravelSV_d0_c1: tauS_d0 - tauS_c1 + 100.0 z_d0_c1 <= 97.085
  TravelSV_d0_c2: tauS_d0 - tauS_c2 + 100.0 z_d0_c2 <= 97.85
  TravelSV_d0_c3: tauS_d0 - tauS_c3 + 100.0 z_d0_c3 <= 93.9525
  TravelSV_d0_c4: tauS_d0 - tauS_c4 + 100.0 z_d0_c4 <= 95.33
  TravelSV_d0_c5: tauS_d0 - tauS_c5 + 100.0 z_d0_c5 <= 96.31
  TravelSV_d0_dN: tauS_d0 - tauS_dN + 100.0 z_d0_dN <= 100.0
  TravelSV_c1_c2: tauS_c1 - tauS_c2 + 100.0 z_c1_c2 <= 87.7425
  TravelSV_c1_c3: tauS_c1 - tauS_c3 + 100.0 z_c1_c3 <= 87.84
  TravelSV_c1_c4: tauS_c1 - tauS_c4 + 100.0 z_c1_c4 <= 84.925
  TravelSV_c1_c5: tauS_c1 - tauS_c5 + 100.0 z_c1_c5 <= 85.625
  TravelSV_c1_dN: tauS_c1 - tauS_dN + 100.0 z_c1_dN <= 89.085
  TravelSV_c2_c1: tauS_c2 - tauS_c1 + 100.0 z_c2_c1 <= 87.7425
  TravelSV_c2_c3: tauS_c2 - tauS_c3 + 100.0 z_c2_c3 <= 83.995
  TravelSV_c2_c4: tauS_c2 - tauS_c4 + 100.0 z_c2_c4 <= 86.2275
  TravelSV_c2_c5: tauS_c2 - tauS_c5 + 100.0 z_c2_c5 <= 87.5
  TravelSV_c2_dN: tauS_c2 - tauS_dN + 100.0 z_c2_dN <= 89.85
  TravelSV_c3_c1: tauS_c3 - tauS_c1 + 100.0 z_c3_c1 <= 87.84
  TravelSV_c3_c2: tauS_c3 - tauS_c2 + 100.0 z_c3_c2 <= 83.995
  TravelSV_c3_c4: tauS_c3 - tauS_c4 + 100.0 z_c3_c4 <= 83.8375
  TravelSV_c3_c5: tauS_c3 - tauS_c5 + 100.0 z_c3_c5 <= 83.8575
  TravelSV_c3_dN: tauS_c3 - tauS_dN + 100.0 z_c3_dN <= 85.9525
  TravelSV_c4_c1: tauS_c4 - tauS_c1 + 100.0 z_c4_c1 <= 84.925
  TravelSV_c4_c2: tauS_c4 - tauS_c2 + 100.0 z_c4_c2 <= 86.2275
  TravelSV_c4_c3: tauS_c4 - tauS_c3 + 100.0 z_c4_c3 <= 83.8375
  TravelSV_c4_c5: tauS_c4 - tauS_c5 + 100.0 z_c4_c5 <= 90.6525
  TravelSV_c4_dN: tauS_c4 - tauS_dN + 100.0 z_c4_dN <= 87.33
  TravelSV_c5_c1: tauS_c5 - tauS_c1 + 100.0 z_c5_c1 <= 85.625
  TravelSV_c5_c2: tauS_c5 - tauS_c2 + 100.0 z_c5_c2 <= 87.5
  TravelSV_c5_c3: tauS_c5 - tauS_c3 + 100.0 z_c5_c3 <= 83.8575
  TravelSV_c5_c4: tauS_c5 - tauS_c4 + 100.0 z_c5_c4 <= 90.6525
  TravelSV_c5_dN: tauS_c5 - tauS_dN + 100.0 z_c5_dN <= 88.31
  time_window_c1_e: tauD_c1 + 8.0 o_1 >= 0.0
  time_window_c1_l: tauD_c1 + 8.0 o_1 <= 100.0
  time_window_c2_e: tauD_c2 + 8.0 o_2 >= 20.0
  time_window_c2_l: tauD_c2 + 8.0 o_2 <= 40.0
  time_window_c3_e: tauD_c3 + 8.0 o_3 >= 0.0
  time_window_c3_l: tauD_c3 + 8.0 o_3 <= 100.0
  time_window_c4_e: tauD_c4 + 8.0 o_4 >= 0.0
  time_window_c4_l: tauD_c4 + 8.0 o_4 <= 100.0
  time_window_c5_e: tauD_c5 + 8.0 o_5 >= 0.0
  time_window_c5_l: tauD_c5 + 8.0 o_5 <= 100.0
  SyncA_c1_c2_c2: 5.0 o_1 + 100.0 x_c1_c2 - tauD_c2 - 4.2575 z_c1_c2 + [ tauS_c2 * z_c1_c2 ] <= 95.7425
  SyncA_c1_c2_c3: 5.0 o_1 + 100.0 x_c1_c2 - tauD_c2 - 4.16 z_c1_c3 + [ tauS_c3 * z_c1_c3 ] <= 95.7425
  SyncA_c1_c2_c4: 5.0 o_1 + 100.0 x_c1_c2 - tauD_c2 - 7.075 z_c1_c4 + [ tauS_c4 * z_c1_c4 ] <= 95.7425
  SyncA_c1_c2_c5: 5.0 o_1 + 100.0 x_c1_c2 - tauD_c2 - 6.375 z_c1_c5 + [ tauS_c5 * z_c1_c5 ] <= 95.7425
  SyncA_c1_c2_dN: 5.0 o_1 + 100.0 x_c1_c2 - tauD_c2 - 2.915 z_c1_dN + [ tauS_dN * z_c1_dN ] <= 95.7425
  SyncA_c1_c3_c2: 5.0 o_1 + 100.0 x_c1_c3 - tauD_c3 - 4.2575 z_c1_c2 + [ tauS_c2 * z_c1_c2 ] <= 95.84
  SyncA_c1_c3_c3: 5.0 o_1 + 100.0 x_c1_c3 - tauD_c3 - 4.16 z_c1_c3 + [ tauS_c3 * z_c1_c3 ] <= 95.84
  SyncA_c1_c3_c4: 5.0 o_1 + 100.0 x_c1_c3 - tauD_c3 - 7.075 z_c1_c4 + [ tauS_c4 * z_c1_c4 ] <= 95.84
  SyncA_c1_c3_c5: 5.0 o_1 + 100.0 x_c1_c3 - tauD_c3 - 6.375 z_c1_c5 + [ tauS_c5 * z_c1_c5 ] <= 95.84
  SyncA_c1_c3_dN: 5.0 o_1 + 100.0 x_c1_c3 - tauD_c3 - 2.915 z_c1_dN + [ tauS_dN * z_c1_dN ] <= 95.84
  SyncA_c1_c4_c2: 5.0 o_1 + 100.0 x_c1_c4 - tauD_c4 - 4.2575 z_c1_c2 + [ tauS_c2 * z_c1_c2 ] <= 92.925
  SyncA_c1_c4_c3: 5.0 o_1 + 100.0 x_c1_c4 - tauD_c4 - 4.16 z_c1_c3 + [ tauS_c3 * z_c1_c3 ] <= 92.925
  SyncA_c1_c4_c4: 5.0 o_1 + 100.0 x_c1_c4 - tauD_c4 - 7.075 z_c1_c4 + [ tauS_c4 * z_c1_c4 ] <= 92.925
  SyncA_c1_c4_c5: 5.0 o_1 + 100.0 x_c1_c4 - tauD_c4 - 6.375 z_c1_c5 + [ tauS_c5 * z_c1_c5 ] <= 92.925
  SyncA_c1_c4_dN: 5.0 o_1 + 100.0 x_c1_c4 - tauD_c4 - 2.915 z_c1_dN + [ tauS_dN * z_c1_dN ] <= 92.925
  SyncA_c1_c5_c2: 5.0 o_1 + 100.0 x_c1_c5 - tauD_c5 - 4.2575 z_c1_c2 + [ tauS_c2 * z_c1_c2 ] <= 93.625
  SyncA_c1_c5_c3: 5.0 o_1 + 100.0 x_c1_c5 - tauD_c5 - 4.16 z_c1_c3 + [ tauS_c3 * z_c1_c3 ] <= 93.625
  SyncA_c1_c5_c4: 5.0 o_1 + 100.0 x_c1_c5 - tauD_c5 - 7.075 z_c1_c4 + [ tauS_c4 * z_c1_c4 ] <= 93.625
  SyncA_c1_c5_c5: 5.0 o_1 + 100.0 x_c1_c5 - tauD_c5 - 6.375 z_c1_c5 + [ tauS_c5 * z_c1_c5 ] <= 93.625
  SyncA_c1_c5_dN: 5.0 o_1 + 100.0 x_c1_c5 - tauD_c5 - 2.915 z_c1_dN + [ tauS_dN * z_c1_dN ] <= 93.625
  SyncA_c1_dN_c2: 5.0 o_1 + 100.0 x_c1_dN - tauD_dN - 4.2575 z_c1_c2 + [ tauS_c2 * z_c1_c2 ] <= 97.085
  SyncA_c1_dN_c3: 5.0 o_1 + 100.0 x_c1_dN - tauD_dN - 4.16 z_c1_c3 + [ tauS_c3 * z_c1_c3 ] <= 97.085
  SyncA_c1_dN_c4: 5.0 o_1 + 100.0 x_c1_dN - tauD_dN - 7.075 z_c1_c4 + [ tauS_c4 * z_c1_c4 ] <= 97.085
  SyncA_c1_dN_c5: 5.0 o_1 + 100.0 x_c1_dN - tauD_dN - 6.375 z_c1_c5 + [ tauS_c5 * z_c1_c5 ] <= 97.085
  SyncA_c1_dN_dN: 5.0 o_1 + 100.0 x_c1_dN - tauD_dN - 2.915 z_c1_dN + [ tauS_dN * z_c1_dN ] <= 97.085
  SyncA_c2_c1_c1: 5.0 o_2 + 100.0 x_c2_c1 - tauD_c1 - 4.2575 z_c2_c1 + [ tauS_c1 * z_c2_c1 ] <= 95.7425
  SyncA_c2_c1_c3: 5.0 o_2 + 100.0 x_c2_c1 - tauD_c1 - 8.005 z_c2_c3 + [ tauS_c3 * z_c2_c3 ] <= 95.7425
  SyncA_c2_c1_c4: 5.0 o_2 + 100.0 x_c2_c1 - tauD_c1 - 5.7725 z_c2_c4 + [ tauS_c4 * z_c2_c4 ] <= 95.7425
  SyncA_c2_c1_c5: 5.0 o_2 + 100.0 x_c2_c1 - tauD_c1 - 4.5 z_c2_c5 + [ tauS_c5 * z_c2_c5 ] <= 95.7425
  SyncA_c2_c1_dN: 5.0 o_2 + 100.0 x_c2_c1 - tauD_c1 - 2.15 z_c2_dN + [ tauS_dN * z_c2_dN ] <= 95.7425
  SyncA_c2_c3_c1: 5.0 o_2 + 100.0 x_c2_c3 - tauD_c3 - 4.2575 z_c2_c1 + [ tauS_c1 * z_c2_c1 ] <= 91.995
  SyncA_c2_c3_c3: 5.0 o_2 + 100.0 x_c2_c3 - tauD_c3 - 8.005 z_c2_c3 + [ tauS_c3 * z_c2_c3 ] <= 91.995
  SyncA_c2_c3_c4: 5.0 o_2 + 100.0 x_c2_c3 - tauD_c3 - 5.7725 z_c2_c4 + [ tauS_c4 * z_c2_c4 ] <= 91.995
  SyncA_c2_c3_c5: 5.0 o_2 + 100.0 x_c2_c3 - tauD_c3 - 4.5 z_c2_c5 + [ tauS_c5 * z_c2_c5 ] <= 91.995
  SyncA_c2_c3_dN: 5.0 o_2 + 100.0 x_c2_c3 - tauD_c3 - 2.15 z_c2_dN + [ tauS_dN * z_c2_dN ] <= 91.995
  SyncA_c2_c4_c1: 5.0 o_2 + 100.0 x_c2_c4 - tauD_c4 - 4.2575 z_c2_c1 + [ tauS_c1 * z_c2_c1 ] <= 94.2275
  SyncA_c2_c4_c3: 5.0 o_2 + 100.0 x_c2_c4 - tauD_c4 - 8.005 z_c2_c3 + [ tauS_c3 * z_c2_c3 ] <= 94.2275
  SyncA_c2_c4_c4: 5.0 o_2 + 100.0 x_c2_c4 - tauD_c4 - 5.7725 z_c2_c4 + [ tauS_c4 * z_c2_c4 ] <= 94.2275
  SyncA_c2_c4_c5: 5.0 o_2 + 100.0 x_c2_c4 - tauD_c4 - 4.5 z_c2_c5 + [ tauS_c5 * z_c2_c5 ] <= 94.2275
  SyncA_c2_c4_dN: 5.0 o_2 + 100.0 x_c2_c4 - tauD_c4 - 2.15 z_c2_dN + [ tauS_dN * z_c2_dN ] <= 94.2275
  SyncA_c2_c5_c1: 5.0 o_2 + 100.0 x_c2_c5 - tauD_c5 - 4.2575 z_c2_c1 + [ tauS_c1 * z_c2_c1 ] <= 95.5
  SyncA_c2_c5_c3: 5.0 o_2 + 100.0 x_c2_c5 - tauD_c5 - 8.005 z_c2_c3 + [ tauS_c3 * z_c2_c3 ] <= 95.5
  SyncA_c2_c5_c4: 5.0 o_2 + 100.0 x_c2_c5 - tauD_c5 - 5.7725 z_c2_c4 + [ tauS_c4 * z_c2_c4 ] <= 95.5
  SyncA_c2_c5_c5: 5.0 o_2 + 100.0 x_c2_c5 - tauD_c5 - 4.5 z_c2_c5 + [ tauS_c5 * z_c2_c5 ] <= 95.5
  SyncA_c2_c5_dN: 5.0 o_2 + 100.0 x_c2_c5 - tauD_c5 - 2.15 z_c2_dN + [ tauS_dN * z_c2_dN ] <= 95.5
  SyncA_c2_dN_c1: 5.0 o_2 + 100.0 x_c2_dN - tauD_dN - 4.2575 z_c2_c1 + [ tauS_c1 * z_c2_c1 ] <= 97.85
  SyncA_c2_dN_c3: 5.0 o_2 + 100.0 x_c2_dN - tauD_dN - 8.005 z_c2_c3 + [ tauS_c3 * z_c2_c3 ] <= 97.85
  SyncA_c2_dN_c4: 5.0 o_2 + 100.0 x_c2_dN - tauD_dN - 5.7725 z_c2_c4 + [ tauS_c4 * z_c2_c4 ] <= 97.85
  SyncA_c2_dN_c5: 5.0 o_2 + 100.0 x_c2_dN - tauD_dN - 4.5 z_c2_c5 + [ tauS_c5 * z_c2_c5 ] <= 97.85
  SyncA_c2_dN_dN: 5.0 o_2 + 100.0 x_c2_dN - tauD_dN - 2.15 z_c2_dN + [ tauS_dN * z_c2_dN ] <= 97.85
  SyncA_c3_c1_c1: 7.0 o_3 + 100.0 x_c3_c1 - tauD_c1 - 4.16 z_c3_c1 + [ tauS_c1 * z_c3_c1 ] <= 95.84
  SyncA_c3_c1_c2: 7.0 o_3 + 100.0 x_c3_c1 - tauD_c1 - 8.005 z_c3_c2 + [ tauS_c2 * z_c3_c2 ] <= 95.84
  SyncA_c3_c1_c4: 7.0 o_3 + 100.0 x_c3_c1 - tauD_c1 - 8.1625 z_c3_c4 + [ tauS_c4 * z_c3_c4 ] <= 95.84
  SyncA_c3_c1_c5: 7.0 o_3 + 100.0 x_c3_c1 - tauD_c1 - 8.1425 z_c3_c5 + [ tauS_c5 * z_c3_c5 ] <= 95.84
  SyncA_c3_c1_dN: 7.0 o_3 + 100.0 x_c3_c1 - tauD_c1 - 6.0475 z_c3_dN + [ tauS_dN * z_c3_dN ] <= 95.84
  SyncA_c3_c2_c1: 7.0 o_3 + 100.0 x_c3_c2 - tauD_c2 - 4.16 z_c3_c1 + [ tauS_c1 * z_c3_c1 ] <= 91.995
  SyncA_c3_c2_c2: 7.0 o_3 + 100.0 x_c3_c2 - tauD_c2 - 8.005 z_c3_c2 + [ tauS_c2 * z_c3_c2 ] <= 91.995
  SyncA_c3_c2_c4: 7.0 o_3 + 100.0 x_c3_c2 - tauD_c2 - 8.1625 z_c3_c4 + [ tauS_c4 * z_c3_c4 ] <= 91.995
  SyncA_c3_c2_c5: 7.0 o_3 + 100.0 x_c3_c2 - tauD_c2 - 8.1425 z_c3_c5 + [ tauS_c5 * z_c3_c5 ] <= 91.995
  SyncA_c3_c2_dN: 7.0 o_3 + 100.0 x_c3_c2 - tauD_c2 - 6.0475 z_c3_dN + [ tauS_dN * z_c3_dN ] <= 91.995
  SyncA_c3_c4_c1: 7.0 o_3 + 100.0 x_c3_c4 - tauD_c4 - 4.16 z_c3_c1 + [ tauS_c1 * z_c3_c1 ] <= 91.8375
  SyncA_c3_c4_c2: 7.0 o_3 + 100.0 x_c3_c4 - tauD_c4 - 8.005 z_c3_c2 + [ tauS_c2 * z_c3_c2 ] <= 91.8375
  SyncA_c3_c4_c4: 7.0 o_3 + 100.0 x_c3_c4 - tauD_c4 - 8.1625 z_c3_c4 + [ tauS_c4 * z_c3_c4 ] <= 91.8375
  SyncA_c3_c4_c5: 7.0 o_3 + 100.0 x_c3_c4 - tauD_c4 - 8.1425 z_c3_c5 + [ tauS_c5 * z_c3_c5 ] <= 91.8375
  SyncA_c3_c4_dN: 7.0 o_3 + 100.0 x_c3_c4 - tauD_c4 - 6.0475 z_c3_dN + [ tauS_dN * z_c3_dN ] <= 91.8375
  SyncA_c3_c5_c1: 7.0 o_3 + 100.0 x_c3_c5 - tauD_c5 - 4.16 z_c3_c1 + [ tauS_c1 * z_c3_c1 ] <= 91.8575
  SyncA_c3_c5_c2: 7.0 o_3 + 100.0 x_c3_c5 - tauD_c5 - 8.005 z_c3_c2 + [ tauS_c2 * z_c3_c2 ] <= 91.8575
  SyncA_c3_c5_c4: 7.0 o_3 + 100.0 x_c3_c5 - tauD_c5 - 8.1625 z_c3_c4 + [ tauS_c4 * z_c3_c4 ] <= 91.8575
  SyncA_c3_c5_c5: 7.0 o_3 + 100.0 x_c3_c5 - tauD_c5 - 8.1425 z_c3_c5 + [ tauS_c5 * z_c3_c5 ] <= 91.8575
  SyncA_c3_c5_dN: 7.0 o_3 + 100.0 x_c3_c5 - tauD_c5 - 6.0475 z_c3_dN + [ tauS_dN * z_c3_dN ] <= 91.8575
  SyncA_c3_dN_c1: 7.0 o_3 + 100.0 x_c3_dN - tauD_dN - 4.16 z_c3_c1 + [ tauS_c1 * z_c3_c1 ] <= 93.9525
  SyncA_c3_dN_c2: 7.0 o_3 + 100.0 x_c3_dN - tauD_dN - 8.005 z_c3_c2 + [ tauS_c2 * z_c3_c2 ] <= 93.9525
  SyncA_c3_dN_c4: 7.0 o_3 + 100.0 x_c3_dN - tauD_dN - 8.1625 z_c3_c4 + [ tauS_c4 * z_c3_c4 ] <= 93.9525
  SyncA_c3_dN_c5: 7.0 o_3 + 100.0 x_c3_dN - tauD_dN - 8.1425 z_c3_c5 + [ tauS_c5 * z_c3_c5 ] <= 93.9525
  SyncA_c3_dN_dN: 7.0 o_3 + 100.0 x_c3_dN - tauD_dN - 6.0475 z_c3_dN + [ tauS_dN * z_c3_dN ] <= 93.9525
  SyncA_c4_c1_c1: 7.0 o_4 + 100.0 x_c4_c1 - tauD_c1 - 7.075 z_c4_c1 + [ tauS_c1 * z_c4_c1 ] <= 92.925
  SyncA_c4_c1_c2: 7.0 o_4 + 100.0 x_c4_c1 - tauD_c1 - 5.7725 z_c4_c2 + [ tauS_c2 * z_c4_c2 ] <= 92.925
  SyncA_c4_c1_c3: 7.0 o_4 + 100.0 x_c4_c1 - tauD_c1 - 8.1625 z_c4_c3 + [ tauS_c3 * z_c4_c3 ] <= 92.925
  SyncA_c4_c1_c5: 7.0 o_4 + 100.0 x_c4_c1 - tauD_c1 - 1.3475 z_c4_c5 + [ tauS_c5 * z_c4_c5 ] <= 92.925
  SyncA_c4_c1_dN: 7.0 o_4 + 100.0 x_c4_c1 - tauD_c1 - 4.67 z_c4_dN + [ tauS_dN * z_c4_dN ] <= 92.925
  SyncA_c4_c2_c1: 7.0 o_4 + 100.0 x_c4_c2 - tauD_c2 - 7.075 z_c4_c1 + [ tauS_c1 * z_c4_c1 ] <= 94.2275
  SyncA_c4_c2_c2: 7.0 o_4 + 100.0 x_c4_c2 - tauD_c2 - 5.7725 z_c4_c2 + [ tauS_c2 * z_c4_c2 ] <= 94.2275
  SyncA_c4_c2_c3: 7.0 o_4 + 100.0 x_c4_c2 - tauD_c2 - 8.1625 z_c4_c3 + [ tauS_c3 * z_c4_c3 ] <= 94.2275
  SyncA_c4_c2_c5: 7.0 o_4 + 100.0 x_c4_c2 - tauD_c2 - 1.3475 z_c4_c5 + [ tauS_c5 * z_c4_c5 ] <= 94.2275
  SyncA_c4_c2_dN: 7.0 o_4 + 100.0 x_c4_c2 - tauD_c2 - 4.67 z_c4_dN + [ tauS_dN * z_c4_dN ] <= 94.2275
  SyncA_c4_c3_c1: 7.0 o_4 + 100.0 x_c4_c3 - tauD_c3 - 7.075 z_c4_c1 + [ tauS_c1 * z_c4_c1 ] <= 91.8375
  SyncA_c4_c3_c2: 7.0 o_4 + 100.0 x_c4_c3 - tauD_c3 - 5.7725 z_c4_c2 + [ tauS_c2 * z_c4_c2 ] <= 91.8375
  SyncA_c4_c3_c3: 7.0 o_4 + 100.0 x_c4_c3 - tauD_c3 - 8.1625 z_c4_c3 + [ tauS_c3 * z_c4_c3 ] <= 91.8375
  SyncA_c4_c3_c5: 7.0 o_4 + 100.0 x_c4_c3 - tauD_c3 - 1.3475 z_c4_c5 + [ tauS_c5 * z_c4_c5 ] <= 91.8375
  SyncA_c4_c3_dN: 7.0 o_4 + 100.0 x_c4_c3 - tauD_c3 - 4.67 z_c4_dN + [ tauS_dN * z_c4_dN ] <= 91.8375
  SyncA_c4_c5_c1: 7.0 o_4 + 100.0 x_c4_c5 - tauD_c5 - 7.075 z_c4_c1 + [ tauS_c1 * z_c4_c1 ] <= 98.6525
  SyncA_c4_c5_c2: 7.0 o_4 + 100.0 x_c4_c5 - tauD_c5 - 5.7725 z_c4_c2 + [ tauS_c2 * z_c4_c2 ] <= 98.6525
  SyncA_c4_c5_c3: 7.0 o_4 + 100.0 x_c4_c5 - tauD_c5 - 8.1625 z_c4_c3 + [ tauS_c3 * z_c4_c3 ] <= 98.6525
  SyncA_c4_c5_c5: 7.0 o_4 + 100.0 x_c4_c5 - tauD_c5 - 1.3475 z_c4_c5 + [ tauS_c5 * z_c4_c5 ] <= 98.6525
  SyncA_c4_c5_dN: 7.0 o_4 + 100.0 x_c4_c5 - tauD_c5 - 4.67 z_c4_dN + [ tauS_dN * z_c4_dN ] <= 98.6525
  SyncA_c4_dN_c1: 7.0 o_4 + 100.0 x_c4_dN - tauD_dN - 7.075 z_c4_c1 + [ tauS_c1 * z_c4_c1 ] <= 95.33
  SyncA_c4_dN_c2: 7.0 o_4 + 100.0 x_c4_dN - tauD_dN - 5.7725 z_c4_c2 + [ tauS_c2 * z_c4_c2 ] <= 95.33
  SyncA_c4_dN_c3: 7.0 o_4 + 100.0 x_c4_dN - tauD_dN - 8.1625 z_c4_c3 + [ tauS_c3 * z_c4_c3 ] <= 95.33
  SyncA_c4_dN_c5: 7.0 o_4 + 100.0 x_c4_dN - tauD_dN - 1.3475 z_c4_c5 + [ tauS_c5 * z_c4_c5 ] <= 95.33
  SyncA_c4_dN_dN: 7.0 o_4 + 100.0 x_c4_dN - tauD_dN - 4.67 z_c4_dN + [ tauS_dN * z_c4_dN ] <= 95.33
  SyncA_c5_c1_c1: 8.0 o_5 + 100.0 x_c5_c1 - tauD_c1 - 6.375 z_c5_c1 + [ tauS_c1 * z_c5_c1 ] <= 93.625
  SyncA_c5_c1_c2: 8.0 o_5 + 100.0 x_c5_c1 - tauD_c1 - 4.5 z_c5_c2 + [ tauS_c2 * z_c5_c2 ] <= 93.625
  SyncA_c5_c1_c3: 8.0 o_5 + 100.0 x_c5_c1 - tauD_c1 - 8.1425 z_c5_c3 + [ tauS_c3 * z_c5_c3 ] <= 93.625
  SyncA_c5_c1_c4: 8.0 o_5 + 100.0 x_c5_c1 - tauD_c1 - 1.3475 z_c5_c4 + [ tauS_c4 * z_c5_c4 ] <= 93.625
  SyncA_c5_c1_dN: 8.0 o_5 + 100.0 x_c5_c1 - tauD_c1 - 3.69 z_c5_dN + [ tauS_dN * z_c5_dN ] <= 93.625
  SyncA_c5_c2_c1: 8.0 o_5 + 100.0 x_c5_c2 - tauD_c2 - 6.375 z_c5_c1 + [ tauS_c1 * z_c5_c1 ] <= 95.5
  SyncA_c5_c2_c2: 8.0 o_5 + 100.0 x_c5_c2 - tauD_c2 - 4.5 z_c5_c2 + [ tauS_c2 * z_c5_c2 ] <= 95.5
  SyncA_c5_c2_c3: 8.0 o_5 + 100.0 x_c5_c2 - tauD_c2 - 8.1425 z_c5_c3 + [ tauS_c3 * z_c5_c3 ] <= 95.5
  SyncA_c5_c2_c4: 8.0 o_5 + 100.0 x_c5_c2 - tauD_c2 - 1.3475 z_c5_c4 + [ tauS_c4 * z_c5_c4 ] <= 95.5
  SyncA_c5_c2_dN: 8.0 o_5 + 100.0 x_c5_c2 - tauD_c2 - 3.69 z_c5_dN + [ tauS_dN * z_c5_dN ] <= 95.5
  SyncA_c5_c3_c1: 8.0 o_5 + 100.0 x_c5_c3 - tauD_c3 - 6.375 z_c5_c1 + [ tauS_c1 * z_c5_c1 ] <= 91.8575
  SyncA_c5_c3_c2: 8.0 o_5 + 100.0 x_c5_c3 - tauD_c3 - 4.5 z_c5_c2 + [ tauS_c2 * z_c5_c2 ] <= 91.8575
  SyncA_c5_c3_c3: 8.0 o_5 + 100.0 x_c5_c3 - tauD_c3 - 8.1425 z_c5_c3 + [ tauS_c3 * z_c5_c3 ] <= 91.8575
  SyncA_c5_c3_c4: 8.0 o_5 + 100.0 x_c5_c3 - tauD_c3 - 1.3475 z_c5_c4 + [ tauS_c4 * z_c5_c4 ] <= 91.8575
  SyncA_c5_c3_dN: 8.0 o_5 + 100.0 x_c5_c3 - tauD_c3 - 3.69 z_c5_dN + [ tauS_dN * z_c5_dN ] <= 91.8575
  SyncA_c5_c4_c1: 8.0 o_5 + 100.0 x_c5_c4 - tauD_c4 - 6.375 z_c5_c1 + [ tauS_c1 * z_c5_c1 ] <= 98.6525
  SyncA_c5_c4_c2: 8.0 o_5 + 100.0 x_c5_c4 - tauD_c4 - 4.5 z_c5_c2 + [ tauS_c2 * z_c5_c2 ] <= 98.6525
  SyncA_c5_c4_c3: 8.0 o_5 + 100.0 x_c5_c4 - tauD_c4 - 8.1425 z_c5_c3 + [ tauS_c3 * z_c5_c3 ] <= 98.6525
  SyncA_c5_c4_c4: 8.0 o_5 + 100.0 x_c5_c4 - tauD_c4 - 1.3475 z_c5_c4 + [ tauS_c4 * z_c5_c4 ] <= 98.6525
  SyncA_c5_c4_dN: 8.0 o_5 + 100.0 x_c5_c4 - tauD_c4 - 3.69 z_c5_dN + [ tauS_dN * z_c5_dN ] <= 98.6525
  SyncA_c5_dN_c1: 8.0 o_5 + 100.0 x_c5_dN - tauD_dN - 6.375 z_c5_c1 + [ tauS_c1 * z_c5_c1 ] <= 96.31
  SyncA_c5_dN_c2: 8.0 o_5 + 100.0 x_c5_dN - tauD_dN - 4.5 z_c5_c2 + [ tauS_c2 * z_c5_c2 ] <= 96.31
  SyncA_c5_dN_c3: 8.0 o_5 + 100.0 x_c5_dN - tauD_dN - 8.1425 z_c5_c3 + [ tauS_c3 * z_c5_c3 ] <= 96.31
  SyncA_c5_dN_c4: 8.0 o_5 + 100.0 x_c5_dN - tauD_dN - 1.3475 z_c5_c4 + [ tauS_c4 * z_c5_c4 ] <= 96.31
  SyncA_c5_dN_dN: 8.0 o_5 + 100.0 x_c5_dN - tauD_dN - 3.69 z_c5_dN + [ tauS_dN * z_c5_dN ] <= 96.31
  SVFirst_c1_c2: tauS_c2 - tauD_c1 + 5.0 o_1 - 100.0 z_c1_c2 >= -82.7425
  SVFirst_c1_c3: tauS_c3 - tauD_c1 + 5.0 o_1 - 100.0 z_c1_c3 >= -82.84
  SVFirst_c1_c4: tauS_c4 - tauD_c1 + 5.0 o_1 - 100.0 z_c1_c4 >= -79.925
  SVFirst_c1_c5: tauS_c5 - tauD_c1 + 5.0 o_1 - 100.0 z_c1_c5 >= -80.625
  SVFirst_c1_dN:  tauS_dN - tauD_c1 + 5.0 o_1 - 100.0 z_c1_dN >= -84.08500000000001
  SVFirst_c2_c1: tauS_c1 - tauD_c2 + 5.0 o_2 - 100.0 z_c2_c1 >= -82.7425
  SVFirst_c2_c3: tauS_c3 - tauD_c2 + 5.0 o_2 - 100.0 z_c2_c3 >= -78.995
  SVFirst_c2_c4: tauS_c4 - tauD_c2 + 5.0 o_2 - 100.0 z_c2_c4 >= -81.22749999999999
  SVFirst_c2_c5: tauS_c5 - tauD_c2 + 5.0 o_2 - 100.0 z_c2_c5 >= -82.5
  SVFirst_c2_dN:  tauS_dN - tauD_c2 + 5.0 o_2 - 100.0 z_c2_dN >= -84.85
  SVFirst_c3_c1: tauS_c1 - tauD_c3 + 7.0 o_3 - 100.0 z_c3_c1 >= -80.84
  SVFirst_c3_c2: tauS_c2 - tauD_c3 + 7.0 o_3 - 100.0 z_c3_c2 >= -76.995
  SVFirst_c3_c4: tauS_c4 - tauD_c3 + 7.0 o_3 - 100.0 z_c3_c4 >= -76.8375
  SVFirst_c3_c5: tauS_c5 - tauD_c3 + 7.0 o_3 - 100.0 z_c3_c5 >= -76.8575
  SVFirst_c3_dN:  tauS_dN - tauD_c3 + 7.0 o_3 - 100.0 z_c3_dN >= -78.9525
  SVFirst_c4_c1: tauS_c1 - tauD_c4 + 7.0 o_4 - 100.0 z_c4_c1 >= -77.925
  SVFirst_c4_c2: tauS_c2 - tauD_c4 + 7.0 o_4 - 100.0 z_c4_c2 >= -79.22749999999999
  SVFirst_c4_c3: tauS_c3 - tauD_c4 + 7.0 o_4 - 100.0 z_c4_c3 >= -76.8375
  SVFirst_c4_c5: tauS_c5 - tauD_c4 + 7.0 o_4 - 100.0 z_c4_c5 >= -83.6525
  SVFirst_c4_dN:  tauS_dN - tauD_c4 + 7.0 o_4 - 100.0 z_c4_dN >= -80.33
  SVFirst_c5_c1: tauS_c1 - tauD_c5 + 8.0 o_5 - 100.0 z_c5_c1 >= -77.625
  SVFirst_c5_c2: tauS_c2 - tauD_c5 + 8.0 o_5 - 100.0 z_c5_c2 >= -79.5
  SVFirst_c5_c3: tauS_c3 - tauD_c5 + 8.0 o_5 - 100.0 z_c5_c3 >= -75.8575
  SVFirst_c5_c4: tauS_c4 - tauD_c5 + 8.0 o_5 - 100.0 z_c5_c4 >= -82.6525
  SVFirst_c5_dN:  tauS_dN - tauD_c5 + 8.0 o_5 - 100.0 z_c5_dN >= -80.31
  Precedence_Swap_c1:  p_1 - z_d0_c1 - z_c2_c1 - z_c3_c1 - z_c4_c1 - z_c5_c1 = 0
  Precedence_Swap_c2:  p_2 - z_d0_c2 - z_c1_c2 - z_c3_c2 - z_c4_c2 - z_c5_c2 = 0
  Precedence_Swap_c3:  p_3 - z_d0_c3 - z_c1_c3 - z_c2_c3 - z_c4_c3 - z_c5_c3 = 0
  Precedence_Swap_c4:  p_4 - z_d0_c4 - z_c1_c4 - z_c2_c4 - z_c3_c4 - z_c5_c4 = 0
  Precedence_Swap_c5:  p_5 - z_d0_c5 - z_c1_c5 - z_c2_c5 - z_c3_c5 - z_c4_c5 = 0
  Order_c1:  o_1 - p_1 <= 0
  Order_c2:  o_2 - p_2 <= 0
  Order_c3:  o_3 - p_3 <= 0
  Order_c4:  o_4 - p_4 <= 0
  Order_c5:  o_5 - p_5 <= 0
  WorkingTimeS_c1:  tauS_c1 <= 89.085
  WorkingTimeS_c2:  tauS_c2 <= 89.85
  WorkingTimeS_c3:  tauS_c3 <= 85.9525
  WorkingTimeS_c4:  tauS_c4 <= 87.33
  WorkingTimeS_c5:  tauS_c5 <= 88.31
  Freight_c1_c2:  k_c2 - k_c1 + 100.0 x_c1_c2 <= 95.0
  Freight_c1_c3:  k_c3 - k_c1 + 100.0 x_c1_c3 <= 95.0
  Freight_c1_c4:  k_c4 - k_c1 + 100.0 x_c1_c4 <= 95.0
  Freight_c1_c5:  k_c5 - k_c1 + 100.0 x_c1_c5 <= 95.0
  Freight_c1_dN:  k_dN - k_c1 + 100.0 x_c1_dN <= 95.0
  Freight_c2_c1:  k_c1 - k_c2 + 100.0 x_c2_c1 <= 95.0
  Freight_c2_c3:  k_c3 - k_c2 + 100.0 x_c2_c3 <= 95.0
  Freight_c2_c4:  k_c4 - k_c2 + 100.0 x_c2_c4 <= 95.0
  Freight_c2_c5:  k_c5 - k_c2 + 100.0 x_c2_c5 <= 95.0
  Freight_c2_dN:  k_dN - k_c2 + 100.0 x_c2_dN <= 95.0
  Freight_c3_c1:  k_c1 - k_c3 + 100.0 x_c3_c1 <= 92.0
  Freight_c3_c2:  k_c2 - k_c3 + 100.0 x_c3_c2 <= 92.0
  Freight_c3_c4:  k_c4 - k_c3 + 100.0 x_c3_c4 <= 92.0
  Freight_c3_c5:  k_c5 - k_c3 + 100.0 x_c3_c5 <= 92.0
  Freight_c3_dN:  k_dN - k_c3 + 100.0 x_c3_dN <= 92.0
  Freight_c4_c1:  k_c1 - k_c4 + 100.0 x_c4_c1 <= 99.0
  Freight_c4_c2:  k_c2 - k_c4 + 100.0 x_c4_c2 <= 99.0
  Freight_c4_c3:  k_c3 - k_c4 + 100.0 x_c4_c3 <= 99.0
  Freight_c4_c5:  k_c5 - k_c4 + 100.0 x_c4_c5 <= 99.0
  Freight_c4_dN:  k_dN - k_c4 + 100.0 x_c4_dN <= 99.0
  Freight_c5_c1:  k_c1 - k_c5 + 100.0 x_c5_c1 <= 98.0
  Freight_c5_c2:  k_c2 - k_c5 + 100.0 x_c5_c2 <= 98.0
  Freight_c5_c3:  k_c3 - k_c5 + 100.0 x_c5_c3 <= 98.0
  Freight_c5_c4:  k_c4 - k_c5 + 100.0 x_c5_c4 <= 98.0
  Freight_c5_dN:  k_dN - k_c5 + 100.0 x_c5_dN <= 98.0
  FuelDV_d0_c1:  phi_c1 + 5.7801 x_d0_c1 <= 10.0
  FuelDV_d0_c2:  phi_c2 + 5.5753 x_d0_c2 <= 10.0
  FuelDV_d0_c3:  phi_c3 + 6.6183 x_d0_c3 <= 10.0
  FuelDV_d0_c4:  phi_c4 + 6.2497 x_d0_c4 <= 10.0
  FuelDV_d0_c5:  phi_c5 + 5.9874 x_d0_c5 <= 10.0
  FuelDV_c1_c2:  phi_c2 - phi_c1 + 6.1393 x_c1_c2 + [ phi_c1 * p_1 - 5.0 x_c1_c2 * p_1 ] <= 5.0
  FuelDV_c1_c3:  phi_c3 - phi_c1 + 6.1132 x_c1_c3 + [ phi_c1 * p_1 - 5.0 x_c1_c3 * p_1 ] <= 5.0
  FuelDV_c1_c4:  phi_c4 - phi_c1 + 6.8933 x_c1_c4 + [ phi_c1 * p_1 - 5.0 x_c1_c4 * p_1 ] <= 5.0
  FuelDV_c1_c5:  phi_c5 - phi_c1 + 6.7059999999999995 x_c1_c5 + [ phi_c1 * p_1 - 5.0 x_c1_c5 * p_1 ] <= 5.0
  FuelDV_c1_dN:  phi_dN - phi_c1 + 5.7801 x_c1_dN + [ phi_c1 * p_1 - 5.0 x_c1_dN * p_1 ] <= 5.0
  FuelDV_c2_c1:  phi_c1 - phi_c2 + 6.1393 x_c2_c1 + [ phi_c2 * p_2 - 5.0 x_c2_c1 * p_2 ] <= 5.0
  FuelDV_c2_c3:  phi_c3 - phi_c2 + 7.1421 x_c2_c3 + [ phi_c2 * p_2 - 5.0 x_c2_c3 * p_2 ] <= 5.0
  FuelDV_c2_c4:  phi_c4 - phi_c2 + 6.5447 x_c2_c4 + [ phi_c2 * p_2 - 5.0 x_c2_c4 * p_2 ] <= 5.0
  FuelDV_c2_c5:  phi_c5 - phi_c2 + 6.2042 x_c2_c5 + [ phi_c2 * p_2 - 5.0 x_c2_c5 * p_2 ] <= 5.0
  FuelDV_c2_dN:  phi_dN - phi_c2 + 5.5753 x_c2_dN + [ phi_c2 * p_2 - 5.0 x_c2_dN * p_2 ] <= 5.0
  FuelDV_c3_c1:  phi_c1 - phi_c3 + 6.1132 x_c3_c1 + [ phi_c3 * p_3 - 5.0 x_c3_c1 * p_3 ] <= 5.0
  FuelDV_c3_c2:  phi_c2 - phi_c3 + 7.1421 x_c3_c2 + [ phi_c3 * p_3 - 5.0 x_c3_c2 * p_3 ] <= 5.0
  FuelDV_c3_c4:  phi_c4 - phi_c3 + 7.1843 x_c3_c4 + [ phi_c3 * p_3 - 5.0 x_c3_c4 * p_3 ] <= 5.0
  FuelDV_c3_c5:  phi_c5 - phi_c3 + 7.1789000000000005 x_c3_c5 + [ phi_c3 * p_3 - 5.0 x_c3_c5 * p_3 ] <= 5.0
  FuelDV_c3_dN:  phi_dN - phi_c3 + 6.6183 x_c3_dN + [ phi_c3 * p_3 - 5.0 x_c3_dN * p_3 ] <= 5.0
  FuelDV_c4_c1:  phi_c1 - phi_c4 + 6.8933 x_c4_c1 + [ phi_c4 * p_4 - 5.0 x_c4_c1 * p_4 ] <= 5.0
  FuelDV_c4_c2:  phi_c2 - phi_c4 + 6.5447 x_c4_c2 + [ phi_c4 * p_4 - 5.0 x_c4_c2 * p_4 ] <= 5.0
  FuelDV_c4_c3:  phi_c3 - phi_c4 + 7.1843 x_c4_c3 + [ phi_c4 * p_4 - 5.0 x_c4_c3 * p_4 ] <= 5.0
  FuelDV_c4_c5:  phi_c5 - phi_c4 + 5.3606 x_c4_c5 + [ phi_c4 * p_4 - 5.0 x_c4_c5 * p_4 ] <= 5.0
  FuelDV_c4_dN:  phi_dN - phi_c4 + 6.2497 x_c4_dN + [ phi_c4 * p_4 - 5.0 x_c4_dN * p_4 ] <= 5.0
  FuelDV_c5_c1:  phi_c1 - phi_c5 + 6.7059999999999995 x_c5_c1 + [ phi_c5 * p_5 - 5.0 x_c5_c1 * p_5 ] <= 5.0
  FuelDV_c5_c2:  phi_c2 - phi_c5 + 6.2042 x_c5_c2 + [ phi_c5 * p_5 - 5.0 x_c5_c2 * p_5 ] <= 5.0
  FuelDV_c5_c3:  phi_c3 - phi_c5 + 7.1789000000000005 x_c5_c3 + [ phi_c5 * p_5 - 5.0 x_c5_c3 * p_5 ] <= 5.0
  FuelDV_c5_c4:  phi_c4 - phi_c5 + 5.3606 x_c5_c4 + [ phi_c5 * p_5 - 5.0 x_c5_c4 * p_5 ] <= 5.0
  FuelDV_c5_dN:  phi_dN - phi_c5 + 5.9874 x_c5_dN + [ phi_c5 * p_5 - 5.0 x_c5_dN * p_5 ] <= 5.0
  FreightSV_c1_c2:  pi_c2 - pi_c1 - phi_c1 + 25.0 z_c1_c2 <= 20.0
  FreightSV_c1_c3:  pi_c3 - pi_c1 - phi_c1 + 25.0 z_c1_c3 <= 20.0
  FreightSV_c1_c4:  pi_c4 - pi_c1 - phi_c1 + 25.0 z_c1_c4 <= 20.0
  FreightSV_c1_c5:  pi_c5 - pi_c1 - phi_c1 + 25.0 z_c1_c5 <= 20.0
  FreightSV_c1_dN:  pi_dN - pi_c1 - phi_c1 + 25.0 z_c1_dN <= 20.0
  FreightSV_c2_c1:  pi_c1 - pi_c2 - phi_c2 + 25.0 z_c2_c1 <= 20.0
  FreightSV_c2_c3:  pi_c3 - pi_c2 - phi_c2 + 25.0 z_c2_c3 <= 20.0
  FreightSV_c2_c4:  pi_c4 - pi_c2 - phi_c2 + 25.0 z_c2_c4 <= 20.0
  FreightSV_c2_c5:  pi_c5 - pi_c2 - phi_c2 + 25.0 z_c2_c5 <= 20.0
  FreightSV_c2_dN:  pi_dN - pi_c2 - phi_c2 + 25.0 z_c2_dN <= 20.0
  FreightSV_c3_c1:  pi_c1 - pi_c3 - phi_c3 + 25.0 z_c3_c1 <= 20.0
  FreightSV_c3_c2:  pi_c2 - pi_c3 - phi_c3 + 25.0 z_c3_c2 <= 20.0
  FreightSV_c3_c4:  pi_c4 - pi_c3 - phi_c3 + 25.0 z_c3_c4 <= 20.0
  FreightSV_c3_c5:  pi_c5 - pi_c3 - phi_c3 + 25.0 z_c3_c5 <= 20.0
  FreightSV_c3_dN:  pi_dN - pi_c3 - phi_c3 + 25.0 z_c3_dN <= 20.0
  FreightSV_c4_c1:  pi_c1 - pi_c4 - phi_c4 + 25.0 z_c4_c1 <= 20.0
  FreightSV_c4_c2:  pi_c2 - pi_c4 - phi_c4 + 25.0 z_c4_c2 <= 20.0
  FreightSV_c4_c3:  pi_c3 - pi_c4 - phi_c4 + 25.0 z_c4_c3 <= 20.0
  FreightSV_c4_c5:  pi_c5 - pi_c4 - phi_c4 + 25.0 z_c4_c5 <= 20.0
  FreightSV_c4_dN:  pi_dN - pi_c4 - phi_c4 + 25.0 z_c4_dN <= 20.0
  FreightSV_c5_c1:  pi_c1 - pi_c5 - phi_c5 + 25.0 z_c5_c1 <= 20.0
  FreightSV_c5_c2:  pi_c2 - pi_c5 - phi_c5 + 25.0 z_c5_c2 <= 20.0
  FreightSV_c5_c3:  pi_c3 - pi_c5 - phi_c5 + 25.0 z_c5_c3 <= 20.0
  FreightSV_c5_c4:  pi_c4 - pi_c5 - phi_c5 + 25.0 z_c5_c4 <= 20.0
  FreightSV_c5_dN:  pi_dN - pi_c5 - phi_c5 + 25.0 z_c5_dN <= 20.0
  WorkingTimeD_c1:  tauD_c1 + 8.0 p_1 <= 92.085
  WorkingTimeD_c2:  tauD_c2 + 8.0 p_2 <= 92.85
  WorkingTimeD_c3:  tauD_c3 + 8.0 p_3 <= 86.9525
  WorkingTimeD_c4:  tauD_c4 + 8.0 p_4 <= 88.33
  WorkingTimeD_c5:  tauD_c5 + 8.0 p_5 <= 88.31
Bounds
0 <= k_c1 <= 100.0
0 <= k_c2 <= 100.0
0 <= k_c3 <= 100.0
0 <= k_c4 <= 100.0
0 <= k_c5 <= 100.0
0 <= k_dN <= 100.0
0 <= phi_c1 <= 5.0
0 <= phi_c2 <= 5.0
0 <= phi_c3 <= 5.0
0 <= phi_c4 <= 5.0
0 <= phi_c5 <= 5.0
0 <= phi_dN <= 5.0
0 <= pi_c1 <= 25.0
0 <= pi_c2 <= 25.0
0 <= pi_c3 <= 25.0
0 <= pi_c4 <= 25.0
0 <= pi_c5 <= 25.0
0 <= pi_dN <= 25.0
0 <= tauD_c1 <= 100.0
0 <= tauD_c2 <= 100.0
0 <= tauD_c3 <= 100.0
0 <= tauD_c4 <= 100.0
0 <= tauD_c5 <= 100.0
0 <= tauD_d0 <= 100.0
0 <= tauD_dN <= 100.0
0 <= tauS_c1 <= 100.0
0 <= tauS_c2 <= 100.0
0 <= tauS_c3 <= 100.0
0 <= tauS_c4 <= 100.0
0 <= tauS_c5 <= 100.0
0 <= tauS_d0 <= 100.0
0 <= tauS_dN <= 100.0
Generals
  k_c1
  k_c2
  k_c3
  k_c4
  k_c5
  k_dN
  phi_c1
  phi_c2
  phi_c3
  phi_c4
  phi_c5
  phi_dN
  pi_c1
  pi_c2
  pi_c3
  pi_c4
  pi_c5
  pi_dN
  tauD_c1
  tauD_c2
  tauD_c3
  tauD_c4
  tauD_c5
  tauD_d0
  tauD_dN
  tauS_c1
  tauS_c2
  tauS_c3
  tauS_c4
  tauS_c5
  tauS_d0
  tauS_dN
Binary
  o_1
  o_2
  o_3
  o_4
  o_5
  p_1
  p_2
  p_3
  p_4
  p_5
  x_c1_c2
  x_c1_c3
  x_c1_c4
  x_c1_c5
  x_c1_dN
  x_c2_c1
  x_c2_c3
  x_c2_c4
  x_c2_c5
  x_c2_dN
  x_c3_c1
  x_c3_c2
  x_c3_c4
  x_c3_c5
  x_c3_dN
  x_c4_c1
  x_c4_c2
  x_c4_c3
  x_c4_c5
  x_c4_dN
  x_c5_c1
  x_c5_c2
  x_c5_c3
  x_c5_c4
  x_c5_dN
  x_d0_c1
  x_d0_c2
  x_d0_c3
  x_d0_c4
  x_d0_c5
  z_c1_c2
  z_c1_c3
  z_c1_c4
  z_c1_c5
  z_c1_dN
  z_c2_c1
  z_c2_c3
  z_c2_c4
  z_c2_c5
  z_c2_dN
  z_c3_c1
  z_c3_c2
  z_c3_c4
  z_c3_c5
  z_c3_dN
  z_c4_c1
  z_c4_c2
  z_c4_c3
  z_c4_c5
  z_c4_dN
  z_c5_c1
  z_c5_c2
  z_c5_c3
  z_c5_c4
  z_c5_dN
  z_d0_c1
  z_d0_c2
  z_d0_c3
  z_d0_c4
  z_d0_c5
End
